data/OOEBPP/R1000/BPP_1000_300_0.2_0.7_0.txt.ins
1000
300 300
1 210 710
2 210 464
3 210 653
4 210 947
5 209 475
6 209 859
7 209 588
8 209 277
9 209 855
10 209 780
11 209 400
12 209 757
13 208 336
14 208 472
15 208 964
16 207 788
17 207 407
18 207 100
19 207 243
20 207 181
21 206 662
22 206 861
23 206 804
24 206 557
25 205 493
26 205 1000
27 205 429
28 205 468
29 205 167
30 205 151
31 205 112
32 205 61
33 204 846
34 204 597
35 204 140
36 204 860
37 204 178
38 204 660
39 204 692
40 203 270
41 203 489
42 203 49
43 203 192
44 202 720
45 202 898
46 202 844
47 202 558
48 202 475
49 202 70
50 202 122
51 201 48
52 201 113
53 201 75
54 201 506
55 201 449
56 201 442
57 200 251
58 200 91
59 200 779
60 200 541
61 199 313
62 199 211
63 199 378
64 199 109
65 198 212
66 198 531
67 198 355
68 198 664
69 198 331
70 197 946
71 197 532
72 197 178
73 197 837
74 197 809
75 196 573
76 196 755
77 195 35
78 195 870
79 195 336
80 195 672
81 195 969
82 195 589
83 194 609
84 194 652
85 193 818
86 193 191
87 193 788
88 193 334
89 193 698
90 193 734
91 193 831
92 193 858
93 192 39
94 192 200
95 192 247
96 192 190
97 192 137
98 192 691
99 192 73
100 192 944
101 192 463
102 192 954
103 192 236
104 191 923
105 191 778
106 191 497
107 191 330
108 191 493
109 190 549
110 190 840
111 190 916
112 190 511
113 190 417
114 190 187
115 189 358
116 189 404
117 189 167
118 189 626
119 189 308
120 188 127
121 188 132
122 188 277
123 188 532
124 188 8
125 188 511
126 188 373
127 188 441
128 187 25
129 187 267
130 187 275
131 186 389
132 186 414
133 186 393
134 186 346
135 186 648
136 186 225
137 186 419
138 186 612
139 186 417
140 185 546
141 185 513
142 185 273
143 185 60
144 185 556
145 185 871
146 185 911
147 185 238
148 184 378
149 184 412
150 184 896
151 184 974
152 184 562
153 183 441
154 183 862
155 183 637
156 183 513
157 183 230
158 183 358
159 183 766
160 182 447
161 182 127
162 182 146
163 182 89
164 182 995
165 182 601
166 182 184
167 182 558
168 182 572
169 182 294
170 181 623
171 181 894
172 181 253
173 181 366
174 181 658
175 181 84
176 180 342
177 180 604
178 180 279
179 180 450
180 180 651
181 180 701
182 180 617
183 179 522
184 179 514
185 179 740
186 179 89
187 179 28
188 179 370
189 179 246
190 178 161
191 178 855
192 178 344
193 178 477
194 178 526
195 178 569
196 177 998
197 177 490
198 177 672
199 177 190
200 176 343
201 176 136
202 176 970
203 176 9
204 176 472
205 175 148
206 175 564
207 175 580
208 175 690
209 174 780
210 174 278
211 174 840
212 174 75
213 174 602
214 173 227
215 173 239
216 173 75
217 173 217
218 173 447
219 173 560
220 173 576
221 172 422
222 172 214
223 172 53
224 171 860
225 171 647
226 171 184
227 171 135
228 171 208
229 171 647
230 171 311
231 171 382
232 171 53
233 170 645
234 170 602
235 170 845
236 170 879
237 170 443
238 170 323
239 170 500
240 170 713
241 170 149
242 170 98
243 170 644
244 169 942
245 169 297
246 169 120
247 169 112
248 169 268
249 168 280
250 168 120
251 168 690
252 168 493
253 168 564
254 168 189
255 167 254
256 167 334
257 167 860
258 167 633
259 167 490
260 167 664
261 167 994
262 166 73
263 166 738
264 166 945
265 166 357
266 166 630
267 166 654
268 166 359
269 166 384
270 166 378
271 165 918
272 165 645
273 165 164
274 165 571
275 165 322
276 165 652
277 164 41
278 164 872
279 164 274
280 164 452
281 164 397
282 164 59
283 164 338
284 164 567
285 164 264
286 163 179
287 163 945
288 163 612
289 163 196
290 163 777
291 163 319
292 162 628
293 162 752
294 162 1000
295 162 842
296 162 899
297 162 505
298 162 245
299 162 885
300 161 227
301 161 874
302 161 204
303 160 809
304 160 826
305 160 844
306 160 418
307 159 595
308 159 287
309 159 13
310 159 259
311 159 888
312 159 923
313 158 65
314 158 974
315 158 612
316 158 576
317 158 370
318 158 752
319 158 488
320 157 938
321 157 737
322 157 511
323 157 874
324 157 455
325 157 695
326 157 234
327 156 977
328 156 336
329 156 63
330 156 649
331 155 266
332 155 353
333 155 673
334 155 642
335 155 576
336 155 803
337 155 224
338 155 960
339 155 461
340 154 211
341 154 245
342 154 475
343 154 807
344 154 406
345 154 844
346 154 962
347 154 197
348 153 621
349 153 434
350 153 855
351 153 351
352 153 502
353 153 800
354 153 300
355 153 942
356 153 639
357 153 157
358 153 438
359 152 673
360 152 297
361 152 937
362 152 493
363 152 888
364 152 280
365 152 148
366 151 316
367 151 525
368 151 606
369 151 684
370 150 158
371 150 369
372 150 332
373 150 52
374 149 57
375 149 508
376 149 246
377 149 794
378 149 780
379 148 777
380 148 108
381 148 479
382 148 853
383 148 133
384 148 677
385 148 928
386 148 620
387 147 720
388 147 161
389 147 897
390 147 849
391 147 499
392 147 878
393 147 479
394 147 3
395 146 227
396 146 648
397 146 302
398 146 883
399 146 834
400 146 65
401 146 96
402 146 390
403 145 372
404 145 373
405 145 357
406 145 828
407 145 900
408 145 952
409 144 858
410 144 671
411 144 38
412 144 494
413 144 297
414 144 673
415 144 347
416 144 901
417 143 175
418 143 463
419 143 10
420 143 372
421 143 126
422 143 967
423 143 773
424 143 777
425 142 695
426 142 90
427 142 414
428 142 629
429 142 251
430 142 888
431 142 768
432 142 233
433 142 56
434 142 458
435 142 627
436 142 574
437 141 733
438 141 625
439 141 355
440 141 731
441 140 586
442 140 532
443 140 148
444 140 375
445 140 395
446 140 791
447 140 667
448 140 51
449 140 866
450 140 12
451 139 802
452 139 871
453 139 896
454 139 287
455 139 432
456 139 57
457 139 653
458 139 273
459 139 453
460 139 296
461 138 396
462 138 72
463 138 650
464 138 166
465 138 226
466 138 138
467 138 438
468 138 1000
469 137 332
470 137 119
471 137 173
472 137 364
473 137 429
474 137 211
475 137 829
476 137 851
477 136 188
478 136 874
479 135 764
480 135 914
481 135 849
482 135 277
483 135 738
484 135 49
485 135 49
486 135 412
487 134 216
488 134 468
489 134 377
490 134 906
491 134 134
492 134 796
493 134 94
494 134 716
495 134 596
496 133 632
497 133 309
498 133 562
499 133 218
500 133 537
501 133 417
502 133 194
503 133 478
504 133 930
505 132 25
506 132 743
507 132 134
508 132 74
509 132 695
510 132 385
511 131 178
512 131 250
513 131 792
514 131 39
515 131 668
516 131 681
517 131 393
518 130 634
519 130 736
520 130 461
521 130 212
522 130 362
523 130 881
524 130 43
525 130 884
526 130 466
527 130 777
528 130 541
529 130 623
530 129 387
531 129 941
532 129 248
533 129 70
534 129 468
535 129 752
536 129 587
537 128 371
538 128 542
539 128 772
540 128 604
541 128 804
542 128 274
543 128 240
544 128 209
545 128 813
546 127 933
547 127 160
548 127 909
549 127 399
550 127 858
551 127 455
552 127 934
553 127 192
554 127 24
555 126 509
556 126 429
557 126 312
558 126 256
559 125 310
560 125 500
561 125 690
562 125 978
563 125 639
564 125 888
565 125 339
566 124 206
567 124 528
568 124 38
569 123 228
570 123 495
571 123 910
572 123 832
573 123 27
574 123 209
575 122 329
576 122 765
577 122 705
578 121 633
579 121 71
580 121 547
581 121 205
582 121 53
583 121 716
584 121 614
585 120 348
586 120 956
587 120 49
588 119 337
589 119 991
590 119 803
591 119 958
592 119 810
593 119 234
594 119 686
595 119 926
596 119 2
597 119 731
598 119 53
599 118 577
600 118 188
601 118 723
602 118 242
603 118 271
604 118 37
605 118 756
606 118 637
607 117 781
608 117 753
609 117 663
610 117 614
611 117 856
612 117 39
613 117 264
614 117 117
615 116 420
616 116 802
617 116 199
618 116 205
619 116 661
620 116 90
621 115 37
622 115 350
623 115 58
624 115 521
625 115 178
626 115 757
627 114 254
628 114 154
629 114 524
630 114 209
631 114 806
632 113 209
633 113 553
634 113 89
635 113 137
636 113 336
637 113 719
638 113 691
639 112 484
640 112 608
641 112 515
642 112 942
643 112 554
644 112 300
645 112 495
646 112 868
647 112 571
648 112 453
649 112 618
650 111 517
651 111 577
652 111 592
653 111 936
654 111 738
655 111 999
656 111 91
657 110 720
658 110 102
659 110 662
660 110 467
661 110 71
662 110 859
663 109 203
664 109 460
665 109 96
666 109 363
667 109 663
668 109 548
669 109 644
670 109 914
671 109 741
672 109 953
673 108 53
674 108 734
675 108 816
676 108 442
677 108 441
678 108 207
679 108 783
680 108 809
681 107 193
682 107 91
683 107 53
684 107 562
685 107 738
686 107 854
687 107 599
688 107 549
689 107 435
690 107 887
691 107 497
692 107 859
693 107 978
694 107 231
695 106 674
696 106 958
697 106 796
698 106 83
699 106 189
700 106 690
701 106 14
702 105 483
703 105 39
704 105 37
705 105 697
706 105 854
707 105 353
708 105 364
709 105 894
710 105 3
711 105 624
712 104 987
713 104 269
714 104 769
715 104 851
716 104 902
717 103 622
718 103 290
719 103 467
720 103 662
721 103 959
722 102 526
723 102 758
724 102 909
725 102 818
726 102 570
727 102 332
728 102 135
729 101 169
730 101 556
731 101 177
732 101 668
733 101 905
734 101 339
735 101 82
736 100 944
737 100 805
738 100 29
739 99 583
740 99 906
741 99 190
742 99 423
743 99 972
744 99 190
745 99 939
746 99 212
747 99 380
748 98 394
749 98 530
750 98 354
751 98 576
752 98 121
753 98 515
754 97 950
755 97 281
756 97 677
757 96 715
758 96 709
759 96 51
760 95 298
761 95 917
762 94 822
763 94 75
764 94 462
765 94 403
766 94 797
767 94 355
768 94 176
769 94 2
770 94 401
771 93 735
772 93 25
773 93 195
774 93 152
775 93 226
776 93 480
777 92 989
778 92 239
779 92 14
780 92 271
781 92 845
782 92 94
783 92 2
784 92 447
785 91 576
786 91 215
787 91 420
788 91 418
789 90 960
790 90 320
791 90 388
792 90 986
793 90 895
794 90 191
795 90 963
796 90 867
797 89 511
798 89 867
799 89 62
800 89 511
801 89 955
802 89 723
803 89 593
804 89 112
805 88 781
806 88 375
807 88 913
808 88 494
809 88 551
810 88 894
811 87 519
812 87 496
813 87 217
814 87 815
815 87 616
816 87 850
817 86 16
818 86 132
819 86 660
820 86 466
821 85 9
822 85 670
823 84 610
824 84 626
825 83 983
826 83 679
827 83 84
828 83 932
829 83 713
830 83 610
831 83 978
832 83 742
833 82 328
834 82 594
835 82 815
836 82 358
837 82 637
838 82 792
839 81 491
840 81 391
841 81 821
842 81 510
843 81 406
844 81 97
845 81 863
846 81 710
847 80 218
848 80 701
849 80 945
850 80 746
851 80 294
852 79 855
853 79 667
854 79 165
855 79 897
856 79 547
857 79 111
858 79 458
859 79 884
860 79 410
861 79 224
862 78 773
863 78 569
864 78 413
865 78 192
866 78 920
867 78 324
868 77 766
869 77 168
870 77 859
871 77 221
872 77 648
873 77 109
874 77 483
875 77 907
876 77 344
877 77 961
878 77 376
879 76 949
880 76 522
881 76 355
882 76 365
883 76 125
884 76 528
885 76 605
886 76 444
887 76 340
888 76 301
889 76 269
890 75 568
891 75 417
892 75 44
893 75 109
894 75 910
895 75 779
896 75 312
897 75 175
898 75 998
899 74 737
900 74 480
901 74 489
902 74 857
903 74 955
904 74 319
905 74 236
906 74 519
907 73 966
908 73 177
909 73 388
910 73 587
911 73 479
912 73 293
913 72 80
914 72 180
915 72 935
916 72 600
917 72 781
918 71 507
919 71 857
920 71 452
921 71 147
922 71 866
923 71 368
924 71 523
925 71 385
926 71 884
927 71 63
928 70 139
929 70 826
930 70 412
931 70 294
932 70 151
933 70 430
934 70 684
935 69 896
936 69 160
937 69 430
938 69 113
939 69 265
940 69 667
941 69 715
942 68 110
943 68 914
944 68 175
945 68 96
946 68 278
947 67 932
948 67 208
949 67 11
950 67 337
951 67 761
952 67 19
953 66 792
954 66 635
955 66 554
956 66 422
957 66 8
958 66 257
959 65 945
960 65 196
961 65 951
962 65 502
963 65 844
964 65 986
965 65 41
966 64 862
967 64 174
968 64 666
969 64 60
970 64 502
971 64 44
972 64 775
973 63 298
974 63 976
975 63 360
976 63 578
977 63 427
978 63 617
979 63 219
980 63 676
981 62 553
982 62 417
983 62 78
984 62 303
985 62 121
986 62 265
987 62 788
988 62 49
989 61 458
990 61 369
991 61 721
992 61 265
993 61 300
994 61 873
995 61 959
996 61 715
997 61 61
998 60 247
999 60 819
1000 60 584
