results/OOEBPP/BPP_1000_300_0.2_0.7_0.txt.ins.log
275,274.003,36.2625,OPT,12233,0,0,AI,0,0.109091,3.11636,0.785965,35.0041,0,2,0,68,64
